NAME : Demo
COMMENT : (No of trucks: 4)
TYPE : CVRP
DIMENSION : 5
EDGE_WEIGHT_TYPE : EUC_2D
CAPACITY : 10
NODE_COORD_SECTION
0 0 0
1 0 10
2 -10 10
3 0 -10
4 10 -10
DEMAND_SECTION
0 0
1 3
2 3
3 3
4 3
DEPOT_SECTION
0
-1
EOF